c uprop, v00.0, 
c reading from data/prog96.c.cnf
c done reading: 0.003319
p cnf 180 882
-91 -105 0
91 105 0
-81 -99 0
81 99 0
-93 -95 0
93 95 0
-86 -89 0
86 89 0
-84 -97 0
84 97 0
-79 -87 0
79 87 0
-102 -108 0
102 108 0
105 -109 0
-105 109 0
-105 -110 0
105 110 0
-99 -105 111 0
-99 -109 111 0
-105 -109 111 0
99 105 -111 0
99 109 -111 0
105 109 -111 0
99 -111 -112 0
105 -111 -112 0
109 -111 -112 0
-99 111 112 0
-105 111 112 0
-109 111 112 0
-99 -105 -109 112 0
99 105 109 -112 0
-95 -99 113 0
-95 -111 113 0
-99 -111 113 0
95 99 -113 0
95 111 -113 0
99 111 -113 0
95 -113 -114 0
99 -113 -114 0
111 -113 -114 0
-95 113 114 0
-99 113 114 0
-111 113 114 0
-95 -99 -111 114 0
95 99 111 -114 0
-89 -95 115 0
-89 -113 115 0
-95 -113 115 0
89 95 -115 0
89 113 -115 0
95 113 -115 0
89 -115 -116 0
95 -115 -116 0
113 -115 -116 0
-89 115 116 0
-95 115 116 0
-113 115 116 0
-89 -95 -113 116 0
89 95 113 -116 0
-84 -89 117 0
-84 -115 117 0
-89 -115 117 0
84 89 -117 0
84 115 -117 0
89 115 -117 0
84 -117 -118 0
89 -117 -118 0
115 -117 -118 0
-84 117 118 0
-89 117 118 0
-115 117 118 0
-84 -89 -115 118 0
84 89 115 -118 0
-79 -84 119 0
-79 -117 119 0
-84 -117 119 0
79 84 -119 0
79 117 -119 0
84 117 -119 0
79 -119 -120 0
84 -119 -120 0
117 -119 -120 0
-79 119 120 0
-84 119 120 0
-117 119 120 0
-79 -84 -117 120 0
79 84 117 -120 0
-79 -102 121 0
-102 -119 121 0
-79 -119 121 0
79 102 -121 0
102 119 -121 0
79 119 -121 0
102 -107 -121 0
79 -107 -121 0
-107 119 -121 0
-102 107 121 0
-79 107 121 0
107 -119 121 0
-79 -102 107 -119 0
79 102 -107 119 0
102 -104 0
-104 121 0
-102 104 -121 0
-98 -102 -121 0
-98 102 121 0
98 -102 121 0
98 102 -121 0
-94 114 0
94 -114 0
-88 -114 0
88 114 0
83 -105 -116 0
83 -94 -116 0
83 -94 -105 0
-83 105 116 0
-83 94 116 0
-83 94 105 0
-78 -83 116 0
-78 -83 105 0
-78 -83 94 0
78 83 -116 0
78 83 -105 0
78 83 -94 0
78 -94 -105 -116 0
-78 94 105 116 0
-99 101 -118 0
-83 101 -118 0
-83 -99 101 0
99 -101 118 0
83 -101 118 0
83 99 -101 0
-77 -101 118 0
-77 99 -101 0
-77 83 -101 0
77 101 -118 0
77 -99 101 0
77 -83 101 0
77 -83 -99 -118 0
-77 83 99 118 0
76 -95 -120 0
76 -101 -120 0
76 -95 -101 0
-76 95 120 0
-76 101 120 0
-76 95 101 0
-75 -76 120 0
-75 -76 95 0
-75 -76 101 0
75 76 -120 0
75 76 -95 0
75 76 -101 0
75 -95 -101 -120 0
-75 95 101 120 0
74 -89 -107 0
74 -76 -107 0
74 -76 -89 0
-74 89 107 0
-74 76 107 0
-74 76 89 0
-73 -74 107 0
-73 -74 89 0
-73 -74 76 0
73 74 -107 0
73 74 -89 0
73 74 -76 0
73 -76 -89 -107 0
-73 76 89 107 0
72 -84 -98 0
72 -74 -98 0
72 -74 -84 0
-72 84 98 0
-72 74 98 0
-72 74 84 0
-71 -72 98 0
-71 -72 84 0
-71 -72 74 0
71 72 -98 0
71 72 -84 0
71 72 -74 0
71 -74 -84 -98 0
-71 74 84 98 0
70 -79 -104 0
70 -72 -104 0
70 -72 -79 0
-70 79 104 0
-70 72 104 0
-70 72 79 0
-69 -70 104 0
-69 -70 79 0
-69 -70 72 0
69 70 -104 0
69 70 -79 0
69 70 -72 0
69 -72 -79 -104 0
-69 72 79 104 0
-68 102 0
-68 70 0
68 -70 -102 0
-67 -70 -102 0
-67 70 102 0
67 70 -102 0
67 -70 102 0
-66 78 0
66 -78 0
-65 -78 0
65 78 0
64 -77 -105 0
64 -66 -77 0
64 -66 -105 0
-64 77 105 0
-64 66 77 0
-64 66 105 0
-63 -64 77 0
-63 -64 105 0
-63 -64 66 0
63 64 -77 0
63 64 -105 0
63 64 -66 0
63 -66 -77 -105 0
-63 66 77 105 0
62 -75 -99 0
62 -64 -75 0
62 -64 -99 0
-62 75 99 0
-62 64 75 0
-62 64 99 0
-61 -62 75 0
-61 -62 99 0
-61 -62 64 0
61 62 -75 0
61 62 -99 0
61 62 -64 0
61 -64 -75 -99 0
-61 64 75 99 0
60 -73 -95 0
60 -62 -73 0
60 -62 -95 0
-60 73 95 0
-60 62 73 0
-60 62 95 0
-59 -60 73 0
-59 -60 95 0
-59 -60 62 0
59 60 -73 0
59 60 -95 0
59 60 -62 0
59 -62 -73 -95 0
-59 62 73 95 0
58 -71 -89 0
58 -60 -71 0
58 -60 -89 0
-58 71 89 0
-58 60 71 0
-58 60 89 0
-57 -58 71 0
-57 -58 89 0
-57 -58 60 0
57 58 -71 0
57 58 -89 0
57 58 -60 0
57 -60 -71 -89 0
-57 60 71 89 0
56 -69 -84 0
56 -58 -69 0
56 -58 -84 0
-56 69 84 0
-56 58 69 0
-56 58 84 0
-55 -56 69 0
-55 -56 84 0
-55 -56 58 0
55 56 -69 0
55 56 -84 0
55 56 -58 0
55 -58 -69 -84 0
-55 58 69 84 0
54 -67 -79 0
54 -56 -67 0
54 -56 -79 0
-54 67 79 0
-54 56 67 0
-54 56 79 0
-54 67 -122 0
-54 79 -122 0
-54 56 -122 0
54 -67 122 0
54 -79 122 0
54 -56 122 0
-56 -67 -79 122 0
56 67 79 -122 0
-68 -102 123 0
-54 -68 123 0
-54 -102 123 0
68 102 -123 0
54 68 -123 0
54 102 -123 0
68 -123 -124 0
102 -123 -124 0
54 -123 -124 0
-68 123 124 0
-102 123 124 0
-54 123 124 0
-54 -68 -102 124 0
54 68 102 -124 0
-110 -125 0
110 125 0
-112 -126 0
112 126 0
-88 -127 0
88 127 0
-65 -128 0
65 128 0
-63 -129 0
63 129 0
-61 -130 0
61 130 0
-59 -131 0
59 131 0
-57 -132 0
57 132 0
-55 -133 0
55 133 0
-122 -134 0
122 134 0
-124 -135 0
124 135 0
-123 -136 0
123 136 0
-137 -139 0
-139 -140 0
137 139 140 0
137 140 -142 0
-137 -140 -142 0
-137 140 142 0
137 -140 142 0
139 -143 0
-143 -144 0
-139 143 144 0
-139 144 -146 0
139 -144 -146 0
139 144 146 0
-139 -144 146 0
143 -147 0
-147 -148 0
-143 147 148 0
-143 148 -150 0
143 -148 -150 0
143 148 150 0
-143 -148 150 0
147 -151 0
-151 -152 0
-147 151 152 0
-147 152 -154 0
147 -152 -154 0
147 152 154 0
-147 -152 154 0
151 -155 0
-155 -156 0
-151 155 156 0
-151 156 -158 0
151 -156 -158 0
151 156 158 0
-151 -156 158 0
-106 155 0
-106 -159 0
106 -155 159 0
-100 -155 159 0
-100 155 -159 0
100 155 159 0
100 -155 -159 0
-96 106 0
-96 -161 0
96 -106 161 0
-90 -106 161 0
-90 106 -161 0
90 106 161 0
90 -106 -161 0
-85 140 0
-85 137 0
85 -137 -140 0
-80 -137 -140 0
-80 137 140 0
80 137 -140 0
80 -137 140 0
103 -140 -144 0
-85 103 -144 0
-85 103 -140 0
-103 140 144 0
85 -103 144 0
85 -103 140 0
-103 -138 144 0
-103 -138 140 0
85 -103 -138 0
103 138 -144 0
103 138 -140 0
-85 103 138 0
-85 138 -140 -144 0
85 -138 140 144 0
141 -144 -148 0
-103 141 -148 0
-103 141 -144 0
-141 144 148 0
103 -141 148 0
103 -141 144 0
-141 -145 148 0
-141 144 -145 0
103 -141 -145 0
141 145 -148 0
141 -144 145 0
-103 141 145 0
-103 -144 145 -148 0
103 144 -145 148 0
-148 149 -152 0
-141 149 -152 0
-141 -148 149 0
148 -149 152 0
141 -149 152 0
141 148 -149 0
-149 152 -153 0
148 -149 -153 0
141 -149 -153 0
149 -152 153 0
-148 149 153 0
-141 149 153 0
-141 -148 -152 153 0
141 148 152 -153 0
-152 -156 157 0
-149 -156 157 0
-149 -152 157 0
152 156 -157 0
149 156 -157 0
149 152 -157 0
156 -157 -160 0
152 -157 -160 0
149 -157 -160 0
-156 157 160 0
-152 157 160 0
-149 157 160 0
-149 -152 -156 160 0
149 152 156 -160 0
-156 -159 162 0
-157 -159 162 0
-156 -157 162 0
156 159 -162 0
157 159 -162 0
156 157 -162 0
159 -162 -163 0
156 -162 -163 0
157 -162 -163 0
-159 162 163 0
-156 162 163 0
-157 162 163 0
-156 -157 -159 163 0
156 157 159 -163 0
-159 -161 164 0
-161 -162 164 0
-159 -162 164 0
159 161 -164 0
161 162 -164 0
159 162 -164 0
161 -164 -165 0
159 -164 -165 0
162 -164 -165 0
-161 164 165 0
-159 164 165 0
-162 164 165 0
-159 -161 -162 165 0
159 161 162 -165 0
161 -166 0
164 -166 0
-161 -164 166 0
-161 -164 -167 0
161 164 -167 0
-161 164 167 0
161 -164 167 0
138 -168 0
137 -168 0
-137 -138 168 0
-137 -138 -169 0
137 138 -169 0
137 -138 169 0
-137 138 169 0
-140 -145 170 0
-145 -168 170 0
-140 -168 170 0
140 145 -170 0
145 168 -170 0
140 168 -170 0
145 -170 -171 0
140 -170 -171 0
168 -170 -171 0
-145 170 171 0
-140 170 171 0
-168 170 171 0
-140 -145 -168 171 0
140 145 168 -171 0
-144 -153 172 0
-153 -170 172 0
-144 -170 172 0
144 153 -172 0
153 170 -172 0
144 170 -172 0
153 -172 -173 0
144 -172 -173 0
170 -172 -173 0
-153 172 173 0
-144 172 173 0
-170 172 173 0
-144 -153 -170 173 0
144 153 170 -173 0
-148 -160 174 0
-160 -172 174 0
-148 -172 174 0
148 160 -174 0
160 172 -174 0
148 172 -174 0
160 -174 -175 0
148 -174 -175 0
172 -174 -175 0
-160 174 175 0
-148 174 175 0
-172 174 175 0
-148 -160 -172 175 0
148 160 172 -175 0
-152 -163 176 0
-163 -174 176 0
-152 -174 176 0
152 163 -176 0
163 174 -176 0
152 174 -176 0
163 -176 -177 0
152 -176 -177 0
174 -176 -177 0
-163 176 177 0
-152 176 177 0
-174 176 177 0
-152 -163 -174 177 0
152 163 174 -177 0
-156 -165 178 0
-165 -176 178 0
-156 -176 178 0
156 165 -178 0
165 176 -178 0
156 176 -178 0
165 -178 -179 0
156 -178 -179 0
176 -178 -179 0
-165 178 179 0
-156 178 179 0
-176 178 179 0
-156 -165 -176 179 0
156 165 176 -179 0
92 -159 -167 0
92 -167 -178 0
92 -159 -178 0
-92 159 167 0
-92 167 178 0
-92 159 178 0
-92 167 -180 0
-92 159 -180 0
-92 178 -180 0
92 -167 180 0
92 -159 180 0
92 -178 180 0
-159 -167 -178 180 0
159 167 178 -180 0
82 -161 -166 0
82 -92 -166 0
82 -92 -161 0
-82 161 166 0
-82 92 166 0
-82 92 161 0
-53 -82 166 0
-53 -82 161 0
-53 -82 92 0
53 82 -166 0
53 82 -161 0
53 82 -92 0
53 -92 -161 -166 0
-53 92 161 166 0
-52 173 0
-52 137 0
52 -137 -173 0
-51 -137 -173 0
-51 137 173 0
51 137 -173 0
51 -137 173 0
50 -140 -175 0
50 -52 -175 0
50 -52 -140 0
-50 140 175 0
-50 52 175 0
-50 52 140 0
-49 -50 175 0
-49 -50 140 0
-49 -50 52 0
49 50 -175 0
49 50 -140 0
49 50 -52 0
49 -52 -140 -175 0
-49 52 140 175 0
48 -144 -177 0
48 -50 -177 0
48 -50 -144 0
-48 144 177 0
-48 50 177 0
-48 50 144 0
-47 -48 177 0
-47 -48 144 0
-47 -48 50 0
47 48 -177 0
47 48 -144 0
47 48 -50 0
47 -50 -144 -177 0
-47 50 144 177 0
46 -148 -179 0
46 -48 -179 0
46 -48 -148 0
-46 148 179 0
-46 48 179 0
-46 48 148 0
-45 -46 179 0
-45 -46 148 0
-45 -46 48 0
45 46 -179 0
45 46 -148 0
45 46 -48 0
45 -48 -148 -179 0
-45 48 148 179 0
44 -152 -180 0
44 -46 -180 0
44 -46 -152 0
-44 152 180 0
-44 46 180 0
-44 46 152 0
-43 -44 180 0
-43 -44 152 0
-43 -44 46 0
43 44 -180 0
43 44 -152 0
43 44 -46 0
43 -46 -152 -180 0
-43 46 152 180 0
42 -53 -156 0
42 -44 -53 0
42 -44 -156 0
-42 53 156 0
-42 44 53 0
-42 44 156 0
-41 -42 53 0
-41 -42 156 0
-41 -42 44 0
41 42 -53 0
41 42 -156 0
41 42 -44 0
41 -44 -53 -156 0
-41 44 53 156 0
40 -82 -159 0
40 -42 -82 0
40 -42 -159 0
-40 82 159 0
-40 42 82 0
-40 42 159 0
-39 -40 82 0
-39 -40 159 0
-39 -40 42 0
39 40 -82 0
39 40 -159 0
39 40 -42 0
39 -42 -82 -159 0
-39 42 82 159 0
-38 161 0
-38 40 0
38 -40 -161 0
-37 -40 -161 0
-37 40 161 0
37 40 -161 0
37 -40 161 0
-36 -137 0
-36 -80 0
36 80 137 0
-35 80 137 0
-35 -80 -137 0
35 80 -137 0
35 -80 137 0
-34 36 0
-34 -169 0
34 -36 169 0
-33 -36 169 0
-33 36 -169 0
33 36 169 0
33 -36 -169 0
-32 34 0
-32 -171 0
32 -34 171 0
-31 -34 171 0
-31 34 -171 0
31 34 171 0
31 -34 -171 0
-30 32 0
-30 -51 0
30 -32 51 0
-29 -32 51 0
-29 32 -51 0
29 32 51 0
29 -32 -51 0
-28 30 0
-28 -49 0
28 -30 49 0
-27 -30 49 0
-27 30 -49 0
27 30 49 0
27 -30 -49 0
-26 28 0
-26 -47 0
26 -28 47 0
-25 -28 47 0
-25 28 -47 0
25 28 47 0
25 -28 -47 0
-24 26 0
-24 -45 0
24 -26 45 0
-23 -26 45 0
-23 26 -45 0
23 26 45 0
23 -26 -45 0
-22 24 0
-22 -43 0
22 -24 43 0
-21 -24 43 0
-21 24 -43 0
21 24 43 0
21 -24 -43 0
-20 22 0
-20 -41 0
20 -22 41 0
-19 -22 41 0
-19 22 -41 0
19 22 41 0
19 -22 -41 0
-18 20 0
-18 -39 0
18 -20 39 0
-17 -20 39 0
-17 20 -39 0
17 20 39 0
17 -20 -39 0
-16 18 0
-16 -37 0
16 -18 37 0
-15 -18 37 0
-15 18 -37 0
15 18 37 0
15 -18 -37 0
-14 16 0
-14 -38 0
14 -16 38 0
-13 -16 38 0
-13 16 -38 0
13 16 38 0
13 -16 -38 0
-12 110 0
-12 137 0
12 -110 -137 0
-110 -137 0
110 137 0
11 -80 -112 0
11 -12 -112 0
11 -12 -80 0
-11 80 112 0
-11 12 112 0
-11 12 80 0
-11 112 0
-11 80 0
-11 12 0
12 80 112 0
10 -88 -169 0
10 -11 -88 0
10 -11 -169 0
-10 88 169 0
-10 11 88 0
-10 11 169 0
-10 88 0
-10 169 0
-10 11 0
11 88 169 0
9 -65 -171 0
9 -10 -65 0
9 -10 -171 0
-9 65 171 0
-9 10 65 0
-9 10 171 0
9 -65 0
9 -171 0
9 -10 0
-10 -65 -171 0
8 -51 -63 0
8 -9 -63 0
8 -9 -51 0
-8 51 63 0
-8 9 63 0
-8 9 51 0
-8 63 0
-8 51 0
-8 9 0
9 51 63 0
7 -49 -61 0
7 -8 -61 0
7 -8 -49 0
-7 49 61 0
-7 8 61 0
-7 8 49 0
7 -61 0
7 -49 0
7 -8 0
-8 -49 -61 0
6 -47 -59 0
6 -7 -59 0
6 -7 -47 0
-6 47 59 0
-6 7 59 0
-6 7 47 0
-6 59 0
-6 47 0
-6 7 0
7 47 59 0
5 -45 -57 0
5 -6 -57 0
5 -6 -45 0
-5 45 57 0
-5 6 57 0
-5 6 45 0
5 -57 0
5 -45 0
5 -6 0
-6 -45 -57 0
4 -43 -55 0
4 -5 -55 0
4 -5 -43 0
-4 43 55 0
-4 5 55 0
-4 5 43 0
4 -55 0
4 -43 0
4 -5 0
-5 -43 -55 0
3 -41 -122 0
3 -4 -122 0
3 -4 -41 0
-3 41 122 0
-3 4 122 0
-3 4 41 0
3 -122 0
3 -41 0
3 -4 0
-4 -41 -122 0
2 -39 -124 0
2 -3 -124 0
2 -3 -39 0
-2 39 124 0
-2 3 124 0
-2 3 39 0
2 -124 0
2 -39 0
2 -3 0
-3 -39 -124 0
1 -37 -123 0
1 -2 -123 0
1 -2 -37 0
-1 37 123 0
-1 2 123 0
-1 2 37 0
1 -123 0
1 -37 0
1 -2 0
-2 -37 -123 0
-1 -38 0
1 -38 0
-1 38 0
